68, 724
252, 87
956, 16
696, 3
842, 92
320, 69
656, 93
499, 4
1209, 55
888, 1
1235, 39
770, 39
833, 80
387, 32
460, 40
565, 88
693, 57
931, 54
258, 36
296, 6
781, 13
978, 55
872, 58
1075, 50
1116, 56
848, 96
526, 40
925, 30
1102, 100
281, 13
866, 49
556, 63
313, 60
811, 12
1170, 100
535, 100
882, 4
321, 23
780, 19
982, 78
612, 26
1022, 82
317, 79
332, 91
487, 73
717, 45
1169, 57
611, 67
403, 6
1028, 7
705, 74
1138, 50
1113, 95
1128, 99
788, 68
742, 23
367, 33
763, 36
321, 44
509, 20
471, 50
760, 16
374, 26
279, 33
942, 71
979, 17
801, 5
653, 37
998, 17